unsat
(define-fun f ((x (_ BitVec 64))) (_ BitVec 64) (im (bvand #b0000000000000000000000000000000000000000000000000000000000000001 x) x (bvnot #b0000000000000000000000000000000000000000000000000000000000000001)))
0.01user 0.00system 0:00.01elapsed 92%CPU (0avgtext+0avgdata 24584maxresident)k
8inputs+8outputs (0major+830minor)pagefaults 0swaps
